8
19
7
1.0
6 1 0
1 10 0
5 2 0
2 6 0
4 3 0
2 4 0
5 1 6 1 2 3 4 5 6
3
1.0
5 5 0
3 3 0
1 1 0
3
1.0
5 5 0
3 3 1 1
1 1 0
3
1.0
5 5 0
3 3 1 1
1 1 2 1 2
7
1.0
6 1 0
1 20 0
5 3 0
1 5 0
4 3 0
2 6 0
3 1 6 1 2 3 4 5 6
7
1.0
6 1 0
1 6 0
1 2 2 5 6
2 5 0
4 3 0
3 4 0
7 1 6 1 2 3 4 5 6
6
1.0
5 1 0
1 6 0
5 2 0
2 13 0
2 3 0
3 4 0
6
1.0
1 1 3 4 5 6
1 7 0
5 3 0
2 5 0
4 5 0
3 4 0
7
1.0
6 1 0
1 8 0
5 2 0
2 5 0
2 3 0
3 4 0
5 1 6 1 2 3 4 5 6
3
1.0
5 5 0
3 3 0
1 1 1 1
6
1.0
4 1 0
1 6 0
5 2 0
2 5 0
4 3 0
3 5 0
6
1.0
6 1 0
1 5 0
5 2 0
2 5 0
4 3 0
1 4 0
3
1.0
5 5 0
3 3 1 1
1 1 1 1
7
1.0
3 1 0
1 6 0
4 2 0
2 5 0
4 3 0
3 4 0
6 1 6 1 2 3 4 5 6
6
1.0
6 1 0
1 8 0
5 2 0
2 6 0
4 3 0
3 5 0
6
1.0
1 21 0
1 21 1 1
1 21 2 1 2
1 21 3 1 2 3
1 21 4 1 2 3 4
1 21 5 1 2 3 4 5
2
1.0
5 5 0
3 3 0
6
1.0
6 1 0
1 6 0
2 2 0
2 5 0
3 3 0
3 4 0
6
1.0
6 1 0
1 6 0
4 2 0
2 8 0
4 3 0
3 5 0
